DataSets/tsp15.tsp
NAME : tsp15
TYPE : TSP
COMMENT : 15-city example
DIMENSION : 15
NODE_COORD_SECTION
1 10 20
2 15 25
3 20 10
4 25 30
5 30 15
6 35 25
7 40 10
8 45 20
9 50 30
10 55 15
11 60 25
12 65 10
13 70 20
14 75 30
15 80 15
EOF
