tsp15.opt.tour
NAME : test15.opt.tour
TYPE : TOUR
COMMENT : Optimal tour for 15-city example
DIMENSION : 15
TOUR_SECTION
1
3
7
12
15
10
5
2
4
9
14
11
6
8
13
-1
EOF
